
  32    4
  10   10   10   10

   0   0   0   0   0  12 2 4 6 7 8 9 11 12 15 20 21 22 
  10   0   1   1   1   6 31 30 28 19 14 3 
   1   1   4   5   0   5 29 27 17 13 5 
   8   6   4   7   0   5 27 26 17 16 13 
  10   5   0   4   5   4 26 25 18 10 
   4   7   3   0   3   4 31 25 19 17 
   6   5   9   6   0   5 28 26 25 24 23 
   5   2   0   6   3   2 29 10 
   6   6   2   0   7   3 28 27 23 
   4   7   2   2   0   2 24 16 
   6   4   4   0   4   2 30 19 
   3   0   6   7   4   2 25 18 
   6   3   5   0   5   2 25 23 
   3   3   0   3   4   2 24 23 
   3   0   1   2   3   2 26 23 
   3   0   8   3   3   1 23 
  10   0   2   5   3   1 23 
  10   4   0   3   5   1 24 
   1   3   0   6   6   1 24 
   3   5   0   3   4   1 26 
   5   1   0   4   6   1 25 
   3   6   6   5   0   1 25 
   8   3   0   3   6   1 32
   2   4   0   2   2   1 32
   1   2   3   0   3   1 32
   4   5   0   3   2   1 32
   3   0   4   3   4   1 32
  10   4   4   0   8   1 32
   3   4   3   3   0   1 32
   2   2   4   0   3   1 32
   1   0   5   6   2   1 32
   0   0   0   0   0   0 
